\ Model facility
\ LP format - for model browsing. Use MPS format to capture full model detail.
Maximize
 [ 8.33333e-08 open[0] * utilization_rate[0]
   + 1.04167e-07 open[0] * utilization_rate[1]
   + 8.33333e-08 open[0] * utilization_rate[2]
   + 2.25e-06 open[0] * utilization_rate[3]
   + 1.04167e-07 open[0] * utilization_rate[4]
   + 3.75e-07 open[0] * utilization_rate[5]
   + 4.16667e-08 open[0] * utilization_rate[6]
   + 3.125e-07 open[0] * utilization_rate[7]
   + 2.08333e-07 open[0] * utilization_rate[8]
   + 8.33333e-08 open[0] * utilization_rate[9]
   + 6.66667e-08 open[1] * utilization_rate[10]
   + 8.33333e-08 open[1] * utilization_rate[11]
   + 6.66667e-08 open[1] * utilization_rate[12]
   + 1.8e-06 open[1] * utilization_rate[13]
   + 8.33333e-08 open[1] * utilization_rate[14]
   + 3e-07 open[1] * utilization_rate[15]
   + 3.33333e-08 open[1] * utilization_rate[16]
   + 2.5e-07 open[1] * utilization_rate[17]
   + 1.66667e-07 open[1] * utilization_rate[18]
   + 6.66667e-08 open[1] * utilization_rate[19]
   + 1.6632e-08 open[2] * utilization_rate[20]
   + 2.079e-08 open[2] * utilization_rate[21]
   + 1.6632e-08 open[2] * utilization_rate[22]
   + 4.49064e-07 open[2] * utilization_rate[23]
   + 2.079e-08 open[2] * utilization_rate[24]
   + 7.48441e-08 open[2] * utilization_rate[25]
   + 8.31601e-09 open[2] * utilization_rate[26]
   + 6.23701e-08 open[2] * utilization_rate[27]
   + 4.158e-08 open[2] * utilization_rate[28]
   + 1.6632e-08 open[2] * utilization_rate[29]
   + 1.386e-08 open[3] * utilization_rate[30]
   + 1.7325e-08 open[3] * utilization_rate[31]
   + 1.386e-08 open[3] * utilization_rate[32]
   + 3.7422e-07 open[3] * utilization_rate[33]
   + 1.7325e-08 open[3] * utilization_rate[34]
   + 6.23701e-08 open[3] * utilization_rate[35]
   + 6.93001e-09 open[3] * utilization_rate[36]
   + 5.19751e-08 open[3] * utilization_rate[37]
   + 3.465e-08 open[3] * utilization_rate[38]
   + 1.386e-08 open[3] * utilization_rate[39]
   + 4e-08 open[4] * utilization_rate[40]
   + 5e-08 open[4] * utilization_rate[41]
   + 4e-08 open[4] * utilization_rate[42]
   + 1.08e-06 open[4] * utilization_rate[43]
   + 5e-08 open[4] * utilization_rate[44]
   + 1.8e-07 open[4] * utilization_rate[45]
   + 2e-08 open[4] * utilization_rate[46]
   + 1.5e-07 open[4] * utilization_rate[47]
   + 1e-07 open[4] * utilization_rate[48]
   + 4e-08 open[4] * utilization_rate[49]
   + 1.6e-08 open[5] * utilization_rate[50]
   + 2e-08 open[5] * utilization_rate[51]
   + 1.6e-08 open[5] * utilization_rate[52]
   + 4.32e-07 open[5] * utilization_rate[53]
   + 2e-08 open[5] * utilization_rate[54]
   + 7.2e-08 open[5] * utilization_rate[55]
   + 8e-09 open[5] * utilization_rate[56]
   + 6e-08 open[5] * utilization_rate[57]
   + 4e-08 open[5] * utilization_rate[58]
   + 1.6e-08 open[5] * utilization_rate[59]
   + 1.06667e-08 open[6] * utilization_rate[60]
   + 1.33333e-08 open[6] * utilization_rate[61]
   + 1.06667e-08 open[6] * utilization_rate[62]
   + 2.88e-07 open[6] * utilization_rate[63]
   + 1.33333e-08 open[6] * utilization_rate[64]
   + 4.8e-08 open[6] * utilization_rate[65]
   + 5.33333e-09 open[6] * utilization_rate[66]
   + 4e-08 open[6] * utilization_rate[67]
   + 2.66667e-08 open[6] * utilization_rate[68]
   + 1.06667e-08 open[6] * utilization_rate[69]
   + 8e-08 open[7] * utilization_rate[70]
   + 1e-07 open[7] * utilization_rate[71]
   + 8e-08 open[7] * utilization_rate[72]
   + 2.16e-06 open[7] * utilization_rate[73]
   + 1e-07 open[7] * utilization_rate[74]
   + 3.6e-07 open[7] * utilization_rate[75]
   + 4e-08 open[7] * utilization_rate[76]
   + 3e-07 open[7] * utilization_rate[77]
   + 2e-07 open[7] * utilization_rate[78]
   + 8e-08 open[7] * utilization_rate[79]
   + 2.96296e-08 open[8] * utilization_rate[80]
   + 3.7037e-08 open[8] * utilization_rate[81]
   + 2.96296e-08 open[8] * utilization_rate[82]
   + 8e-07 open[8] * utilization_rate[83]
   + 3.7037e-08 open[8] * utilization_rate[84]
   + 1.33333e-07 open[8] * utilization_rate[85]
   + 1.48148e-08 open[8] * utilization_rate[86]
   + 1.11111e-07 open[8] * utilization_rate[87]
   + 7.40741e-08 open[8] * utilization_rate[88]
   + 2.96296e-08 open[8] * utilization_rate[89]
   + 3.2e-08 open[9] * utilization_rate[90]
   + 4e-08 open[9] * utilization_rate[91]
   + 3.2e-08 open[9] * utilization_rate[92]
   + 8.64e-07 open[9] * utilization_rate[93]
   + 4e-08 open[9] * utilization_rate[94]
   + 1.44e-07 open[9] * utilization_rate[95]
   + 1.6e-08 open[9] * utilization_rate[96]
   + 1.2e-07 open[9] * utilization_rate[97]
   + 8e-08 open[9] * utilization_rate[98]
   + 3.2e-08 open[9] * utilization_rate[99] ] / 2 
Subject To
 R0: utilization_rate[0] + utilization_rate[10] + utilization_rate[20]
   + utilization_rate[30] + utilization_rate[40] + utilization_rate[50]
   + utilization_rate[60] + utilization_rate[70] + utilization_rate[80]
   + utilization_rate[90] = 1
 R1: utilization_rate[1] + utilization_rate[11] + utilization_rate[21]
   + utilization_rate[31] + utilization_rate[41] + utilization_rate[51]
   + utilization_rate[61] + utilization_rate[71] + utilization_rate[81]
   + utilization_rate[91] = 1
 R2: utilization_rate[2] + utilization_rate[12] + utilization_rate[22]
   + utilization_rate[32] + utilization_rate[42] + utilization_rate[52]
   + utilization_rate[62] + utilization_rate[72] + utilization_rate[82]
   + utilization_rate[92] = 1
 R3: utilization_rate[3] + utilization_rate[13] + utilization_rate[23]
   + utilization_rate[33] + utilization_rate[43] + utilization_rate[53]
   + utilization_rate[63] + utilization_rate[73] + utilization_rate[83]
   + utilization_rate[93] = 1
 R4: utilization_rate[4] + utilization_rate[14] + utilization_rate[24]
   + utilization_rate[34] + utilization_rate[44] + utilization_rate[54]
   + utilization_rate[64] + utilization_rate[74] + utilization_rate[84]
   + utilization_rate[94] = 1
 R5: utilization_rate[5] + utilization_rate[15] + utilization_rate[25]
   + utilization_rate[35] + utilization_rate[45] + utilization_rate[55]
   + utilization_rate[65] + utilization_rate[75] + utilization_rate[85]
   + utilization_rate[95] = 1
 R6: utilization_rate[6] + utilization_rate[16] + utilization_rate[26]
   + utilization_rate[36] + utilization_rate[46] + utilization_rate[56]
   + utilization_rate[66] + utilization_rate[76] + utilization_rate[86]
   + utilization_rate[96] = 1
 R7: utilization_rate[7] + utilization_rate[17] + utilization_rate[27]
   + utilization_rate[37] + utilization_rate[47] + utilization_rate[57]
   + utilization_rate[67] + utilization_rate[77] + utilization_rate[87]
   + utilization_rate[97] = 1
 R8: utilization_rate[8] + utilization_rate[18] + utilization_rate[28]
   + utilization_rate[38] + utilization_rate[48] + utilization_rate[58]
   + utilization_rate[68] + utilization_rate[78] + utilization_rate[88]
   + utilization_rate[98] = 1
 R9: utilization_rate[9] + utilization_rate[19] + utilization_rate[29]
   + utilization_rate[39] + utilization_rate[49] + utilization_rate[59]
   + utilization_rate[69] + utilization_rate[79] + utilization_rate[89]
   + utilization_rate[99] = 1
 R10: open[0] + open[1] + open[2] + open[3] + open[4] + open[5] + open[6]
   + open[7] + open[8] + open[9] <= 5
Bounds
Binaries
 open[0] open[1] open[2] open[3] open[4] open[5] open[6] open[7] open[8]
 open[9] utilization_rate[0] utilization_rate[1] utilization_rate[2]
 utilization_rate[3] utilization_rate[4] utilization_rate[5]
 utilization_rate[6] utilization_rate[7] utilization_rate[8]
 utilization_rate[9] utilization_rate[10] utilization_rate[11]
 utilization_rate[12] utilization_rate[13] utilization_rate[14]
 utilization_rate[15] utilization_rate[16] utilization_rate[17]
 utilization_rate[18] utilization_rate[19] utilization_rate[20]
 utilization_rate[21] utilization_rate[22] utilization_rate[23]
 utilization_rate[24] utilization_rate[25] utilization_rate[26]
 utilization_rate[27] utilization_rate[28] utilization_rate[29]
 utilization_rate[30] utilization_rate[31] utilization_rate[32]
 utilization_rate[33] utilization_rate[34] utilization_rate[35]
 utilization_rate[36] utilization_rate[37] utilization_rate[38]
 utilization_rate[39] utilization_rate[40] utilization_rate[41]
 utilization_rate[42] utilization_rate[43] utilization_rate[44]
 utilization_rate[45] utilization_rate[46] utilization_rate[47]
 utilization_rate[48] utilization_rate[49] utilization_rate[50]
 utilization_rate[51] utilization_rate[52] utilization_rate[53]
 utilization_rate[54] utilization_rate[55] utilization_rate[56]
 utilization_rate[57] utilization_rate[58] utilization_rate[59]
 utilization_rate[60] utilization_rate[61] utilization_rate[62]
 utilization_rate[63] utilization_rate[64] utilization_rate[65]
 utilization_rate[66] utilization_rate[67] utilization_rate[68]
 utilization_rate[69] utilization_rate[70] utilization_rate[71]
 utilization_rate[72] utilization_rate[73] utilization_rate[74]
 utilization_rate[75] utilization_rate[76] utilization_rate[77]
 utilization_rate[78] utilization_rate[79] utilization_rate[80]
 utilization_rate[81] utilization_rate[82] utilization_rate[83]
 utilization_rate[84] utilization_rate[85] utilization_rate[86]
 utilization_rate[87] utilization_rate[88] utilization_rate[89]
 utilization_rate[90] utilization_rate[91] utilization_rate[92]
 utilization_rate[93] utilization_rate[94] utilization_rate[95]
 utilization_rate[96] utilization_rate[97] utilization_rate[98]
 utilization_rate[99]
End
